(declare-fun temp55422_1 () (_ BitVec 64))
(declare-fun temp55422_2 () (_ BitVec 64))
(declare-fun var77740 () (_ BitVec 64))
(declare-fun k!0 () Bool)
(declare-fun ARGNAME_filter_NAMEEND_DIM () (_ BitVec 64))
(declare-fun ARGNAME_data_format_NAMEEND_STRFMT () (_ BitVec 64))
(declare-fun temp55422_3 () (_ BitVec 64))
(declare-fun ARGNAME_out_backprop_NAMEEND_DIM () (_ BitVec 64))
(declare-fun var77770 () (_ BitVec 64))
(declare-fun temp55422_4 () (_ BitVec 64))
(declare-fun temp55422_5 () (_ BitVec 64))
(declare-fun ARGNAME_filter_NAMEEND_DIMSIZE
             ()
             (Array (_ BitVec 64) (_ BitVec 64)))
(declare-fun temp55422_6 () (_ BitVec 64))
(declare-fun temp55422_7 () (_ BitVec 64))
(declare-fun temp55422_8 () (_ BitVec 64))
(declare-fun temp55422_9 () (_ BitVec 64))
(declare-fun temp55422_10 () (_ BitVec 64))
(declare-fun temp55422_11 () (_ BitVec 64))
(declare-fun temp55422_12 () (_ BitVec 64))
(declare-fun temp55422_13 () (_ BitVec 64))
(declare-fun temp55422_14 () (_ BitVec 64))
(declare-fun temp55422_15 () (_ BitVec 64))
(declare-fun temp55422_16 () (_ BitVec 64))
(declare-fun temp55422_17 () (_ BitVec 64))
(declare-fun temp55422_18 () (_ BitVec 64))
(declare-fun var77799 () (_ BitVec 64))
(declare-fun temp55422_19 () (_ BitVec 64))
(declare-fun ARGNAME_out_backprop_NAMEEND_DIMSIZE
             ()
             (Array (_ BitVec 64) (_ BitVec 64)))
(declare-fun temp55422_20 () (_ BitVec 64))
(declare-fun temp55422_21 () (_ BitVec 64))
(declare-fun temp55422_22 () (_ BitVec 64))
(declare-fun temp55422_23 () (_ BitVec 64))
(declare-fun temp55422_24 () (_ BitVec 64))
(declare-fun temp55422_25 () (_ BitVec 64))
(declare-fun temp55422_26 () (_ BitVec 64))
(declare-fun temp55422_27 () (_ BitVec 64))
(declare-fun temp55422_28 () (_ BitVec 64))
(declare-fun temp55422_29 () (_ BitVec 64))
(declare-fun temp55422_30 () (_ BitVec 64))
(declare-fun temp55422_31 () (_ BitVec 64))
(declare-fun temp55422_32 () (_ BitVec 64))
(declare-fun var77832 () (_ BitVec 64))
(declare-fun temp55422_33 () (_ BitVec 64))
(declare-fun temp55422_34 () (_ BitVec 64))
(declare-fun var77833 () (_ BitVec 64))
(declare-fun var77834 () (_ BitVec 64))
(declare-fun temp55422_35 () (_ BitVec 64))
(declare-fun temp55422_36 () (_ BitVec 64))
(declare-fun var275510 () (_ BitVec 64))
(declare-fun temp55422_37 () (_ BitVec 64))
(declare-fun var275528 () (_ BitVec 64))
(declare-fun temp55422_38 () (_ BitVec 64))
(declare-fun temp55422_39 () (_ BitVec 64))
(declare-fun var406582 () (_ BitVec 64))
(declare-fun temp55422_40 () (_ BitVec 64))
(declare-fun var406600 () (_ BitVec 64))
(declare-fun temp55422_41 () (_ BitVec 64))
(declare-fun temp55422_42 () (_ BitVec 64))
(declare-fun var537654 () (_ BitVec 64))
(declare-fun temp55422_43 () (_ BitVec 64))
(declare-fun var537672 () (_ BitVec 64))
(declare-fun temp55422_44 () (_ BitVec 64))
(declare-fun temp55422_46 () (_ BitVec 64))
(declare-fun temp55422_45 () (_ BitVec 64))
(declare-fun temp55422_48 () (_ BitVec 64))
(declare-fun temp55422_47 () (_ BitVec 64))
(declare-fun temp55422_50 () (_ BitVec 64))
(declare-fun temp55422_49 () (_ BitVec 64))
(declare-fun temp55422_51 () (_ BitVec 64))
(declare-fun var730187 () (_ BitVec 64))
(declare-fun var730166 () (_ BitVec 64))
(declare-fun var664598 () (_ BitVec 64))
(declare-fun temp55422_52 () (_ BitVec 64))
(declare-fun temp55422_53 () (_ BitVec 64))
(declare-fun var861259 () (_ BitVec 64))
(declare-fun var861238 () (_ BitVec 64))
(declare-fun var664611 () (_ BitVec 64))
(declare-fun temp55422_54 () (_ BitVec 64))
(declare-fun temp55422_55 () (_ BitVec 64))
(declare-fun var1057842 () (_ BitVec 64))
(declare-fun temp55422_56 () (_ BitVec 64))
(declare-fun var1123378 () (_ BitVec 64))
(declare-fun temp55422_57 () (_ BitVec 64))
(declare-fun var1188914 () (_ BitVec 64))
(declare-fun temp55422_58 () (_ BitVec 64))
(declare-fun var78184 () (_ BitVec 64))
(declare-fun temp55422_60 () (_ BitVec 64))
(declare-fun temp55422_59 () (_ BitVec 64))
(declare-fun temp55422_62 () (_ BitVec 64))
(declare-fun temp55422_61 () (_ BitVec 64))
(declare-fun temp55422_63 () (_ BitVec 64))
(declare-fun var78544 () (_ BitVec 64))
(declare-fun temp55422_64 () (_ BitVec 64))
(declare-fun var78545 () (_ BitVec 64))
(assert (or (= ARGNAME_data_format_NAMEEND_STRFMT #x0000000000000000)
    (= ARGNAME_data_format_NAMEEND_STRFMT #x0000000000000001)
    (= ARGNAME_data_format_NAMEEND_STRFMT #x0000000000000002)
    (= ARGNAME_data_format_NAMEEND_STRFMT #x0000000000000003)
    (= ARGNAME_data_format_NAMEEND_STRFMT #x0000000000000004)
    (= ARGNAME_data_format_NAMEEND_STRFMT #x0000000000000005)))
(assert (= temp55422_1 #x0000000000000005))
(assert (= var77740
   (ite (= ARGNAME_filter_NAMEEND_DIM temp55422_1)
        #x0000000000000001
        #x0000000000000000)))
(assert (= temp55422_2 #x0000000000000001))
(assert (= var77740 temp55422_2))
(assert (= temp55422_3 #x0000000000000005))
(assert (= var77770
   (ite (= ARGNAME_out_backprop_NAMEEND_DIM temp55422_3)
        #x0000000000000001
        #x0000000000000000)))
(assert (= temp55422_4 #x0000000000000001))
(assert (= var77770 temp55422_4))
(assert (= temp55422_5 #x0000000000000000))
(assert (= temp55422_6 (select ARGNAME_filter_NAMEEND_DIMSIZE temp55422_5)))
(assert (= temp55422_7 #x0000000000000001))
(assert (= temp55422_8 (select ARGNAME_filter_NAMEEND_DIMSIZE temp55422_7)))
(assert (= temp55422_9 #x0000000000000002))
(assert (= temp55422_10 (select ARGNAME_filter_NAMEEND_DIMSIZE temp55422_9)))
(assert (= temp55422_11 #x0000000000000003))
(assert (= temp55422_12 (select ARGNAME_filter_NAMEEND_DIMSIZE temp55422_11)))
(assert (= temp55422_13 #x0000000000000004))
(assert (= temp55422_14 (select ARGNAME_filter_NAMEEND_DIMSIZE temp55422_13)))
(assert (= temp55422_15 #x0000000000000005))
(assert (= temp55422_16 (select ARGNAME_filter_NAMEEND_DIMSIZE temp55422_15)))
(assert (= temp55422_17 #x0000000000000003))
(assert (= temp55422_18 (select ARGNAME_filter_NAMEEND_DIMSIZE temp55422_17)))
(assert (= var77799 temp55422_18))
(assert (= temp55422_19 #x0000000000000000))
(assert (= temp55422_20 (select ARGNAME_out_backprop_NAMEEND_DIMSIZE temp55422_19)))
(assert (= temp55422_21 #x0000000000000001))
(assert (= temp55422_22 (select ARGNAME_out_backprop_NAMEEND_DIMSIZE temp55422_21)))
(assert (= temp55422_23 #x0000000000000002))
(assert (= temp55422_24 (select ARGNAME_out_backprop_NAMEEND_DIMSIZE temp55422_23)))
(assert (= temp55422_25 #x0000000000000003))
(assert (= temp55422_26 (select ARGNAME_out_backprop_NAMEEND_DIMSIZE temp55422_25)))
(assert (= temp55422_27 #x0000000000000004))
(assert (= temp55422_28 (select ARGNAME_out_backprop_NAMEEND_DIMSIZE temp55422_27)))
(assert (= temp55422_29 #x0000000000000005))
(assert (= temp55422_30 (select ARGNAME_out_backprop_NAMEEND_DIMSIZE temp55422_29)))
(assert (= temp55422_31 #x0000000000000004))
(assert (= temp55422_32 (select ARGNAME_out_backprop_NAMEEND_DIMSIZE temp55422_31)))
(assert (= var77832 temp55422_32))
(assert (= temp55422_33 #x0000000000000004))
(assert (= temp55422_34 (select ARGNAME_filter_NAMEEND_DIMSIZE temp55422_33)))
(assert (= var77833 temp55422_34))
(assert (= var77834 (ite (= var77832 var77833) #x0000000000000001 #x0000000000000000)))
(assert (= temp55422_35 #x0000000000000001))
(assert (= var77834 temp55422_35))
(assert (= temp55422_36 #x0000000000000001))
(assert (= var275510 temp55422_36))
(assert (= temp55422_37 #x0000000000000001))
(assert (= var275528
   (ite (bvslt var275510 temp55422_37) #x0000000000000001 #x0000000000000000)))
(assert (= temp55422_38 #x0000000000000000))
(assert (= var275528 temp55422_38))
(assert (= temp55422_39 #x0000000000000001))
(assert (= var406582 temp55422_39))
(assert (= temp55422_40 #x0000000000000001))
(assert (= var406600
   (ite (bvslt var406582 temp55422_40) #x0000000000000001 #x0000000000000000)))
(assert (= temp55422_41 #x0000000000000000))
(assert (= var406600 temp55422_41))
(assert (= temp55422_42 #x0000000000000001))
(assert (= var537654 temp55422_42))
(assert (= temp55422_43 #x0000000000000001))
(assert (= var537672
   (ite (bvslt var537654 temp55422_43) #x0000000000000001 #x0000000000000000)))
(assert (= temp55422_44 #x0000000000000000))
(assert (= var537672 temp55422_44))
(assert (= temp55422_46 #x00000000000000ff))
(assert (= temp55422_45 temp55422_46))
(assert (= temp55422_48 #x00000000000000ff))
(assert (= temp55422_47 temp55422_48))
(assert (= temp55422_50 #x00000000000000ff))
(assert (= temp55422_49 temp55422_50))
(assert (= temp55422_51 #x0000000000000000))
(assert (= var730187 temp55422_51))
(assert (= var730166 var730187))
(assert (= var664598 var730166))
(assert (= temp55422_52 #x0000000000000000))
(assert (= var664598 temp55422_52))
(assert (= temp55422_53 #x0000000000000000))
(assert (= var861259 temp55422_53))
(assert (= var861238 var861259))
(assert (= var664611 var861238))
(assert (= temp55422_54 #x0000000000000000))
(assert (= var664611 temp55422_54))
(assert (= temp55422_55 #x0000000000008000))
(assert (= var1057842 temp55422_55))
(assert (= temp55422_56 #x0000000000040000))
(assert (= var1123378 temp55422_56))
(assert (= temp55422_57 #x0000000000200000))
(assert (= var1188914 temp55422_57))
(assert (= temp55422_58 #x0000000000000001))
(assert (= var78184 temp55422_58))
(assert (= temp55422_60 #x0000000000000001))
(assert (= temp55422_59 temp55422_60))
(assert (= temp55422_62 #x0000000000000001))
(assert (= temp55422_61 temp55422_62))
(assert (= temp55422_63 #x0000000000000000))
(assert (= var78544 temp55422_63))
(assert (= temp55422_64 #x0000000000000001))
(assert (= var78545 (bvadd var78544 temp55422_64)))
(model-add temp55422_1 () (_ BitVec 64) #x0000000000000005)
(model-add temp55422_2 () (_ BitVec 64) #x0000000000000001)
(model-add var77740 () (_ BitVec 64) #x0000000000000001)
(model-del k!0)
(model-add ARGNAME_filter_NAMEEND_DIM
           ()
           (_ BitVec 64)
           (ite k!0 #x0000000000000005 (bvnot #x0000000000000005)))


